# LAMMPS input data for alanine dipeptide
10 atoms
5 atom types
0.0 27.1381 xlo xhi
0.0 27.1381 ylo yhi
0.0 27.1381 zlo zhi
0.0 0.0 0.0 xy xz yz

Atoms

1	1	19.620288610458374 20.245392322540283 12.080838680267334
2	2	18.724992275238037 21.30765438079834 12.644081115722656
3	5	18.67189645767212 22.339112758636475 12.057371139526367
4	4	17.949272394180298 21.07743978500366 13.704406023025513
5	3	17.275285720825195 22.02533483505249 14.53101396560669
6	1	16.474151611328125 21.122100353240967 15.4949951171875
7	2	18.179610967636108 22.86020040512085 15.425843000411987
8	5	19.342219829559326 22.44051218032837 15.74743628501892
9	4	17.746995687484741 24.09637928009033 15.716688632965088
10	1	18.424384593963623 25.074069499969482 16.566705703735352


